certificates/rado_a10_c24_N35.cnf
c Rad2 upper bound instance: x1 + 10*x2 - x3 = 24, interval [1,35]
p cnf 35 218
1 3 7 0
-1 -3 -7 0
1 4 17 0
-1 -4 -17 0
1 5 27 0
-1 -5 -27 0
2 3 8 0
-2 -3 -8 0
2 4 18 0
-2 -4 -18 0
2 5 28 0
-2 -5 -28 0
3 9 0
-3 -9 0
3 4 19 0
-3 -4 -19 0
3 5 29 0
-3 -5 -29 0
3 4 10 0
-3 -4 -10 0
4 20 0
-4 -20 0
4 5 30 0
-4 -5 -30 0
1 2 5 0
-1 -2 -5 0
3 5 11 0
-3 -5 -11 0
4 5 21 0
-4 -5 -21 0
5 31 0
-5 -31 0
2 6 0
-2 -6 0
3 6 12 0
-3 -6 -12 0
4 6 22 0
-4 -6 -22 0
5 6 32 0
-5 -6 -32 0
2 3 7 0
-2 -3 -7 0
3 7 13 0
-3 -7 -13 0
4 7 23 0
-4 -7 -23 0
5 7 33 0
-5 -7 -33 0
2 4 8 0
-2 -4 -8 0
3 8 14 0
-3 -8 -14 0
4 8 24 0
-4 -8 -24 0
5 8 34 0
-5 -8 -34 0
2 5 9 0
-2 -5 -9 0
3 9 15 0
-3 -9 -15 0
4 9 25 0
-4 -9 -25 0
5 9 35 0
-5 -9 -35 0
2 6 10 0
-2 -6 -10 0
3 10 16 0
-3 -10 -16 0
4 10 26 0
-4 -10 -26 0
2 7 11 0
-2 -7 -11 0
3 11 17 0
-3 -11 -17 0
4 11 27 0
-4 -11 -27 0
2 8 12 0
-2 -8 -12 0
3 12 18 0
-3 -12 -18 0
4 12 28 0
-4 -12 -28 0
2 9 13 0
-2 -9 -13 0
3 13 19 0
-3 -13 -19 0
4 13 29 0
-4 -13 -29 0
2 10 14 0
-2 -10 -14 0
3 14 20 0
-3 -14 -20 0
4 14 30 0
-4 -14 -30 0
1 15 0
-1 -15 0
2 11 15 0
-2 -11 -15 0
3 15 21 0
-3 -15 -21 0
4 15 31 0
-4 -15 -31 0
1 2 16 0
-1 -2 -16 0
2 12 16 0
-2 -12 -16 0
3 16 22 0
-3 -16 -22 0
4 16 32 0
-4 -16 -32 0
1 3 17 0
-1 -3 -17 0
2 13 17 0
-2 -13 -17 0
3 17 23 0
-3 -17 -23 0
4 17 33 0
-4 -17 -33 0
1 4 18 0
-1 -4 -18 0
2 14 18 0
-2 -14 -18 0
3 18 24 0
-3 -18 -24 0
4 18 34 0
-4 -18 -34 0
1 5 19 0
-1 -5 -19 0
2 15 19 0
-2 -15 -19 0
3 19 25 0
-3 -19 -25 0
4 19 35 0
-4 -19 -35 0
1 6 20 0
-1 -6 -20 0
2 16 20 0
-2 -16 -20 0
3 20 26 0
-3 -20 -26 0
1 7 21 0
-1 -7 -21 0
2 17 21 0
-2 -17 -21 0
3 21 27 0
-3 -21 -27 0
1 8 22 0
-1 -8 -22 0
2 18 22 0
-2 -18 -22 0
3 22 28 0
-3 -22 -28 0
1 9 23 0
-1 -9 -23 0
2 19 23 0
-2 -19 -23 0
3 23 29 0
-3 -23 -29 0
1 10 24 0
-1 -10 -24 0
2 20 24 0
-2 -20 -24 0
3 24 30 0
-3 -24 -30 0
1 11 25 0
-1 -11 -25 0
2 21 25 0
-2 -21 -25 0
3 25 31 0
-3 -25 -31 0
1 12 26 0
-1 -12 -26 0
2 22 26 0
-2 -22 -26 0
3 26 32 0
-3 -26 -32 0
1 13 27 0
-1 -13 -27 0
2 23 27 0
-2 -23 -27 0
3 27 33 0
-3 -27 -33 0
1 14 28 0
-1 -14 -28 0
2 24 28 0
-2 -24 -28 0
3 28 34 0
-3 -28 -34 0
1 15 29 0
-1 -15 -29 0
2 25 29 0
-2 -25 -29 0
3 29 35 0
-3 -29 -35 0
1 16 30 0
-1 -16 -30 0
2 26 30 0
-2 -26 -30 0
1 17 31 0
-1 -17 -31 0
2 27 31 0
-2 -27 -31 0
1 18 32 0
-1 -18 -32 0
2 28 32 0
-2 -28 -32 0
1 19 33 0
-1 -19 -33 0
2 29 33 0
-2 -29 -33 0
1 20 34 0
-1 -20 -34 0
2 30 34 0
-2 -30 -34 0
1 21 35 0
-1 -21 -35 0
2 31 35 0
-2 -31 -35 0
