certificates/rado_a10_c24_N35.drat
-31 -34 -35 0
6 28 -3 -5 0
28 -5 -3 0
d 6 28 -3 -5 0
-34 -35 0
d -31 -34 -35 0
28 -35 0
5 -35 0
-35 0
-2 -5 0
d -2 -9 -5 0
-5 0
31 0
9 0
-3 0
29 0
11 0
-2 0
1 0
6 0
28 0
8 0
7 0
-15 0
-17 0
-20 0
-14 0
-22 0
-23 0
-25 0
-21 0
19 0
0
